100 500 587
12 10
11 12
12 12
12 13
8 8
8 8
8 9
9 12
11 8
11 11
12 10
11 9
10 10
11 12
8 13
11 11
9 11
11 10
12 8
8 10
13 10
11 11
9 9
12 11
12 8
8 11
8 10
12 12
8 11
8 11
12 11
8 9
10 11
10 9
13 13
12 8
11 12
10 8
8 9
9 10
12 8
11 12
9 10
12 11
13 10
12 12
9 11
12 13
8 11
9 9
8 8
11 12
9 9
13 8
12 11
12 13
9 8
10 13
13 12
13 11
11 11
11 9
13 11
8 11
9 10
10 11
11 10
13 10
12 12
13 8
9 12
8 11
9 9
8 8
10 10
9 10
12 11
9 8
11 9
13 11
8 13
10 9
8 11
13 13
10 8
13 9
13 9
9 9
11 13
11 13
12 8
9 12
8 8
8 10
8 9
10 8
10 13
11 9
9 11
13 12
